
Gurobi 11.0.3 (win64) logging started Tue Sep  3 16:21:57 2024

Set parameter LogFile to value "C:\Users\ealvarezq\Desktop\D.Representative_days_based_on_RES_and_Demand\IEEE118_mod2_ByStages_nc90/openStarNet_IEEE118_mod2_ByStages_nc90.log"
Set parameter Method to value 2
Set parameter MIPFocus to value 1
Set parameter Presolve to value 2
Set parameter RINS to value 100
Set parameter MIPGap to value 0.01
Set parameter Threads to value 24
Set parameter TimeLimit to value 259200
Set parameter IterationLimit to value 760000000
Gurobi Optimizer version 11.0.3 build v11.0.3rc0 (win64 - Windows Server 2019.0 (17763.2))

CPU model: AMD Ryzen Threadripper PRO 3955WX 16-Cores, instruction set [SSE2|AVX|AVX2]
Thread count: 16 physical cores, 32 logical processors, using up to 24 threads

Optimize a model with 127893 rows, 94739 columns and 329824 nonzeros
Model fingerprint: 0x6991fc68
Variable types: 94705 continuous, 34 integer (34 binary)
Coefficient statistics:
  Matrix range     [2e-03, 9e+03]
  Objective range  [1e+00, 1e+00]
  Bounds range     [1e-04, 3e+00]
  RHS range        [1e-04, 3e+00]
Presolve removed 86569 rows and 43977 columns
Presolve time: 0.92s
Presolved: 41324 rows, 50762 columns, 151018 nonzeros
Variable types: 50728 continuous, 34 integer (34 binary)
Root relaxation presolved: 41324 rows, 50762 columns, 151018 nonzeros

Root barrier log...

Ordering time: 0.03s

Barrier statistics:
 Dense cols : 34
 AA' NZ     : 1.874e+05
 Factor NZ  : 7.247e+05 (roughly 40 MB of memory)
 Factor Ops : 1.515e+07 (less than 1 second per iteration)
 Threads    : 23

                  Objective                Residual
Iter       Primal          Dual         Primal    Dual     Compl     Time
   0   8.93597053e+06 -7.05034211e+08  1.56e+01 1.11e+03  2.56e+04     2s
   1   2.16800443e+06 -2.70618889e+08  3.44e+00 1.78e-08  5.29e+03     2s
   2   5.93588591e+05 -8.84903451e+07  6.33e-01 6.14e-09  1.10e+03     2s
   3   3.45938517e+05 -2.45571737e+07  1.65e-01 3.18e-09  2.54e+02     3s
   4   2.28900600e+05 -4.10812525e+06  1.38e-02 5.16e-10  3.68e+01     3s
   5   1.73404522e+05 -1.23931190e+06  6.65e-03 1.39e-10  1.18e+01     3s
   6   1.05162318e+05 -3.41810138e+05  2.98e-03 1.06e-10  3.69e+00     3s
   7   3.68883924e+04 -8.56463622e+04  7.91e-04 1.41e-11  1.01e+00     3s
   8   1.81419269e+04 -3.12314976e+04  3.32e-04 6.68e-12  4.06e-01     3s
   9   1.21217101e+04 -1.36863257e+04  2.02e-04 4.17e-12  2.12e-01     3s
  10   7.35175340e+03 -4.97314879e+03  1.04e-04 3.67e-12  1.01e-01     3s
  11   5.01410585e+03 -2.37549711e+03  6.09e-05 2.99e-12  6.07e-02     3s
  12   3.58794066e+03 -6.79681401e+02  3.70e-05 5.46e-12  3.50e-02     4s
  13   2.87170840e+03  1.42690919e+02  2.50e-05 8.21e-12  2.24e-02     4s
  14   2.26641941e+03  6.94116877e+02  1.52e-05 5.95e-12  1.29e-02     4s
  15   1.80321741e+03  9.33547621e+02  7.87e-06 3.71e-12  7.14e-03     4s
  16   1.55563584e+03  1.07397200e+03  4.04e-06 3.79e-12  3.95e-03     4s
  17   1.47955593e+03  1.15314500e+03  2.89e-06 2.38e-12  2.68e-03     4s
  18   1.41090237e+03  1.19608411e+03  1.86e-06 4.77e-12  1.76e-03     4s
  19   1.35976513e+03  1.23034844e+03  1.11e-06 2.39e-12  1.06e-03     5s
  20   1.33011805e+03  1.24354804e+03  6.67e-07 5.64e-12  7.11e-04     5s
  21   1.30766811e+03  1.25903644e+03  3.41e-07 2.43e-12  3.99e-04     5s
  22   1.29395162e+03  1.27590470e+03  1.50e-07 3.42e-12  1.48e-04     5s
  23   1.28846959e+03  1.27932761e+03  7.71e-08 3.37e-12  7.51e-05     5s
  24   1.28544850e+03  1.28014395e+03  3.72e-08 2.90e-12  4.36e-05     5s
  25   1.28400773e+03  1.28149636e+03  1.83e-08 6.64e-12  2.06e-05     5s
  26   1.28330885e+03  1.28206632e+03  9.47e-09 5.22e-12  1.02e-05     5s
  27   1.28278218e+03  1.28236205e+03  1.10e-08 3.58e-12  3.45e-06     5s
  28   1.28268243e+03  1.28247587e+03  6.54e-09 4.72e-12  1.70e-06     6s
  29   1.28260760e+03  1.28251578e+03  3.36e-09 6.04e-12  7.54e-07     6s
  30   1.28255555e+03  1.28252520e+03  1.21e-09 4.05e-12  2.49e-07     6s
  31   1.28253255e+03  1.28252943e+03  2.66e-09 2.45e-12  2.57e-08     6s
  32   1.28253002e+03  1.28252993e+03  2.37e-09 3.18e-12  7.38e-10     6s
  33   1.28252998e+03  1.28252998e+03  1.71e-09 5.96e-12  5.49e-12     6s

Barrier solved model in 33 iterations and 6.28 seconds (1.66 work units)
Optimal objective 1.28252998e+03


Root crossover log...

    8873 DPushes remaining with DInf 0.0000000e+00                 6s
       0 DPushes remaining with DInf 0.0000000e+00                 7s

    2072 PPushes remaining with PInf 0.0000000e+00                 7s
       0 PPushes remaining with PInf 0.0000000e+00                 7s

  Push phase complete: Pinf 0.0000000e+00, Dinf 2.8998260e-11      7s


Root simplex log...

Iteration    Objective       Primal Inf.    Dual Inf.      Time
    3740    1.2825300e+03   0.000000e+00   0.000000e+00      7s
    3740    1.2825300e+03   0.000000e+00   0.000000e+00      7s

Root relaxation: objective 1.282530e+03, 3740 iterations, 5.86 seconds (1.33 work units)

    Nodes    |    Current Node    |     Objective Bounds      |     Work
 Expl Unexpl |  Obj  Depth IntInf | Incumbent    BestBd   Gap | It/Node Time

     0     0 1282.52998    0   23          - 1282.52998      -     -    7s
H    0     0                    9324.0122034 1282.52998  86.2%     -   10s
H    0     0                    3994.4084590 1282.52998  67.9%     -   13s
     0     0 1304.03980    0   21 3994.40846 1304.03980  67.4%     -   17s
     0     0 1304.16247    0   21 3994.40846 1304.16247  67.4%     -   20s
     0     0 1306.76599    0   21 3994.40846 1306.76599  67.3%     -   22s
H    0     0                    1489.1239800 1306.76599  12.2%     -   24s
     0     0 1306.76599    0   21 1489.12398 1306.76599  12.2%     -   24s
     0     0 1308.06402    0   21 1489.12398 1308.06402  12.2%     -   27s
     0     0 1308.06402    0   21 1489.12398 1308.06402  12.2%     -   28s
     0     0 1308.06402    0   21 1489.12398 1308.06402  12.2%     -   28s
     0     0 1331.46596    0   21 1489.12398 1331.46596  10.6%     -   30s
     0     0 1331.46596    0   21 1489.12398 1331.46596  10.6%     -   30s
     0     0 1331.46596    0   21 1489.12398 1331.46596  10.6%     -   32s
H    0     0                    1430.7775852 1331.46596  6.94%     -  270s
     0     2 1331.46596    0   21 1430.77759 1331.46596  6.94%     -  272s
     1     4 1340.41912    1   20 1430.77759 1331.46596  6.94%  5123  277s
     3     8 1370.79308    2   19 1430.77759 1331.46596  6.94%  2869  281s
     7    12     cutoff    3      1430.77759 1337.75408  6.50%  2724  288s
    15    18 1347.91115    4   17 1430.77759 1340.78609  6.29%  2032  293s
    27    26 1396.04823    5   17 1430.77759 1347.97548  5.79%  1815  306s
    45    34 1408.58288    6   16 1430.77759 1354.03943  5.36%  1784  319s
    69    37 1420.94355    7   15 1430.77759 1361.97966  4.81%  1891  326s
    93    49 1425.63247    8   14 1430.77759 1372.19851  4.09%  1754  330s
   117    61     cutoff    8      1430.77759 1372.20000  4.09%  1569  344s
   141    59     cutoff    9      1430.77759 1372.20000  4.09%  1485  346s
   210    74 1421.31667   13   10 1430.77759 1372.20000  4.09%  1153  355s
   250    70     cutoff   14      1430.77759 1372.20000  4.09%  1086  363s
   298    73     cutoff   16      1430.77759 1372.20000  4.09%  1049  466s
H  310    73                    1430.4384447 1372.20000  4.07%  1024  466s
   392    61     cutoff   12      1430.43844 1372.20000  4.07%   940  470s
   525    40 1384.30021    9   12 1430.43844 1374.73668  3.89%   801  476s
   579    46 1386.84722    9   11 1430.43844 1374.73668  3.89%   777  480s
   680    51 1404.28303   12    8 1430.43844 1374.73668  3.89%   740  493s
   807    30 1423.93793   11    9 1430.43844 1374.73668  3.89%   701  498s
   840    10 1425.34290   12    8 1430.43844 1374.73668  3.89%   694  500s
   918     3     cutoff   10      1430.43844 1408.08732  1.56%   671  507s

Cutting planes:
  Gomory: 3
  Implied bound: 222
  MIR: 367
  Flow cover: 5
  RLT: 1
  Relax-and-lift: 4

Explored 945 nodes (639222 simplex iterations) in 508.40 seconds (471.93 work units)
Thread count was 24 (of 32 available processors)

Solution count 5: 1430.44 1430.78 1489.12 ... 9324.01

Optimal solution found (tolerance 1.00e-02)
Best objective 1.430438444661e+03, best bound 1.425719312519e+03, gap 0.3299%

Gurobi 11.0.3 (win64) logging started Tue Sep  3 16:31:17 2024

Set parameter LogFile to value "C:\Users\ealvarezq\Desktop\D.Representative_days_based_on_RES_and_Demand\IEEE118_mod2_ByStages_nc90/openStarNet_IEEE118_mod2_ByStages_nc90.log"
Set parameter Method to value 2
Set parameter MIPFocus to value 1
Set parameter Presolve to value 2
Set parameter RINS to value 100
Set parameter MIPGap to value 0.01
Set parameter Threads to value 24
Set parameter TimeLimit to value 259200
Set parameter IterationLimit to value 760000000
Gurobi Optimizer version 11.0.3 build v11.0.3rc0 (win64 - Windows Server 2019.0 (17763.2))

CPU model: AMD Ryzen Threadripper PRO 3955WX 16-Cores, instruction set [SSE2|AVX|AVX2]
Thread count: 16 physical cores, 32 logical processors, using up to 24 threads

Optimize a model with 127893 rows, 94705 columns and 317550 nonzeros
Model fingerprint: 0x467deb1e
Coefficient statistics:
  Matrix range     [2e-03, 9e+03]
  Objective range  [1e+00, 1e+00]
  Bounds range     [1e-04, 3e+00]
  RHS range        [1e-04, 3e+02]
Presolve removed 95197 rows and 41556 columns
Presolve time: 0.30s
Presolved: 32696 rows, 53340 columns, 127511 nonzeros

Ordering time: 0.02s

Barrier statistics:
 AA' NZ     : 1.076e+05
 Factor NZ  : 4.302e+05 (roughly 40 MB of memory)
 Factor Ops : 6.215e+06 (less than 1 second per iteration)
 Threads    : 24

                  Objective                Residual
Iter       Primal          Dual         Primal    Dual     Compl     Time
   0   1.57874247e+07 -3.66143744e+08  9.58e+01 8.33e+01  1.25e+04     0s
   1   2.06416907e+06 -1.10469124e+08  1.11e+01 1.25e-12  1.78e+03     1s
   2   4.56598989e+05 -2.05696496e+07  1.53e+00 1.36e-12  2.53e+02     1s
   3   1.89297759e+05 -2.97974988e+06  4.97e-02 7.96e-13  2.83e+01     1s
   4   8.37990738e+04 -5.59732292e+05  6.20e-03 1.25e-12  5.55e+00     1s
   5   3.74280261e+04 -1.24979834e+05  2.30e-03 3.98e-13  1.40e+00     1s
   6   1.35425319e+04 -4.12744407e+04  5.61e-04 2.84e-13  4.71e-01     1s
   7   8.55403351e+03 -1.31847491e+04  2.63e-04 2.25e-13  1.87e-01     1s
   8   5.98093225e+03 -4.99951819e+03  1.48e-04 2.07e-13  9.42e-02     1s
   9   3.60196910e+03 -2.05145322e+03  5.98e-05 2.48e-13  4.85e-02     1s
  10   2.55064248e+03 -6.78671393e+01  2.89e-05 2.70e-13  2.25e-02     1s
  11   2.08638177e+03  6.71787365e+02  1.64e-05 3.53e-13  1.21e-02     1s
  12   1.80575800e+03  9.54148912e+02  9.05e-06 2.15e-13  7.31e-03     1s
  13   1.68736455e+03  1.15591524e+03  6.07e-06 1.79e-13  4.56e-03     1s
  14   1.57531791e+03  1.27970852e+03  3.31e-06 2.13e-13  2.54e-03     1s
  15   1.51492825e+03  1.35057877e+03  1.90e-06 2.16e-13  1.41e-03     1s
  16   1.48305948e+03  1.38582915e+03  1.17e-06 2.16e-13  8.34e-04     1s
  17   1.45594856e+03  1.40512780e+03  5.52e-07 4.40e-13  4.36e-04     1s
  18   1.44224790e+03  1.41766006e+03  2.54e-07 1.93e-13  2.11e-04     1s
  19   1.43606788e+03  1.42426327e+03  1.18e-07 2.06e-13  1.01e-04     1s
  20   1.43272026e+03  1.42928591e+03  4.61e-08 2.84e-13  2.95e-05     1s
  21   1.43103461e+03  1.43009492e+03  1.16e-08 3.54e-13  8.06e-06     1s
  22   1.43064942e+03  1.43037664e+03  3.99e-09 3.20e-13  2.34e-06     1s
  23   1.43047307e+03  1.43043204e+03  6.05e-10 2.77e-13  3.52e-07     1s
  24   1.43044542e+03  1.43043668e+03  1.20e-10 3.46e-13  7.50e-08     1s
  25   1.43043847e+03  1.43043840e+03  6.59e-11 3.32e-13  5.63e-10     1s
  26   1.43043844e+03  1.43043844e+03  1.52e-11 2.38e-13  3.09e-15     1s

Barrier solved model in 26 iterations and 1.24 seconds (0.58 work units)
Optimal objective 1.43043844e+03

Crossover log...

    9395 DPushes remaining with DInf 0.0000000e+00                 1s
       0 DPushes remaining with DInf 0.0000000e+00                 1s

     934 PPushes remaining with PInf 0.0000000e+00                 1s
       0 PPushes remaining with PInf 0.0000000e+00                 1s

  Push phase complete: Pinf 0.0000000e+00, Dinf 3.4146350e-12      1s

Iteration    Objective       Primal Inf.    Dual Inf.      Time
    2421    1.4304384e+03   0.000000e+00   0.000000e+00      2s

Solved in 2421 iterations and 1.51 seconds (0.70 work units)
Optimal objective  1.430438445e+03
